<number of tasks>
20

<cycle time>
1000

<order strength>
0,2


<task times>
1 429
2 565
3 497
4 435
5 467
6 682
7 261
8 561
9 430
10 366
11 336
12 610
13 499
14 621
15 603
16 355
17 318
18 450
19 369
20 616

<precedence relations>
1,6
1,8
3,7
3,9
6,10
7,11
7,12
10,15
11,16
12,13
12,14
13,19
13,20
14,18
15,17

<end>
